50 3
1764
1960
1372
392
784
1960
1568
196
1372
980
392
1176
1764
784
980
1568
1960
392
392
784
784
1176
588
784
1960
1372
196
1764
1568
980
392
1176
1568
784
1176
196
1960
784
588
392
1568
1960
784
588
392
1960
1176
196
980
1372
10936
20163
22605
